NAME : sko-49.-462.tour
COMMENT : Length = -462
COMMENT : Found by LKH [Keld Helsgaun] Sun Apr 13 17:05:01 2025
TYPE : TOUR
DIMENSION : 49
TOUR_SECTION
1
19
30
21
16
5
33
32
7
42
18
34
10
35
48
49
31
2
37
45
38
39
6
43
20
27
23
8
44
17
4
24
26
36
47
41
14
13
9
15
3
12
29
46
28
25
11
40
22
-1
EOF
